119
103
43
230
55
29
36
192
83
55
83
48
71
54
24
138
35
244
187
64
33
65
230
203
28
474
34
0
19
125
950
15
26
583
279
104
72
51
51
103
97
20
53
34
54
451
176
78
118
388
19
98
27
169
174
53
304
0
15
16
95
74
30
97
183
67
182
135
121
92
68
144
0
54
377
415
26
180
17
50
153
48
22
1316
171
227
141
61
258
54
20
211
138
305
173
0
308
60
99
237
